TCS_Benchmarks/redos_fix/snort3_output_distinct_4918_4917_16_0.txt
.*
(.*)(\/[tT][pP][mM][xX]\/[gG][eE][tT][aA][tT][tT][aA][cC][hH][mM][eE][nN][tT].*[fF][iI][lL][eE]([tT][yY][pP][eE]|[nN][aA][mM][eE])=)([^$&]*)
[^$&]*